c Lingeling SAT Solver
c 
c Version ala b02aa1a04343558c4252b5f4a723be021964f652
c 
c Copyright (C) 2010-2012 Armin Biere JKU Linz Austria.
c All rights reserved.
c 
c released Sat Oct 13 14:05:26 CEST 2012
c compiled Sat Feb 16 02:48:12 EST 2013
c 
c gcc (Debian 4.4.5-8) 4.4.5
c -Wall -O3 -DNLGLOG -DNDEBUG -DNCHKSOL -DNLGLPICOSAT 
c Linux greencar2 2.6.32-5-amd64 x86_64
c 
c reading input file p73.cnf
c no embedded options
c found 'p cnf 219288 675881' header
c read 219288 variables, 675881 clauses, 1405552 literals in 0.0 seconds
c
c feature vars 219288
c feature lits.total 1405552
c feature lits.pos 749956
c feature lits.neg 655596
c feature clauses.total 675881
c feature clauses.unit 82418
c feature clauses.bin 476655
c feature clauses.trn 115408
c feature clauses.lrg 1400
c feature cog.val.min 1
c feature cog.val.avg 97667
c feature cog.val.max 210212
c feature cog.var.min 1
c feature cog.var.avg 109645
c feature cog.var.max 219287
c
c
c --abstime=0
c --acts=2
c --actavgmax=120
c --actstdmin=20
c --actstdmax=80
c --agile=23
c --bias=2
c --block=1
c --blkrtc=0
c --blkclslim=2000
c --blkocclim=2000
c --blkmaxeff=2147483647
c --blkmineff=10000000
c --blkreleff=20
c --card=0
c --cce=3
c --ccemaxeff=100000000
c --ccemineff=5000000
c --ccereleff=3
c --check=0
c --cgrclsr=1
c --cgrmaxority=20
c --cgrmaxeff=8000000
c --cgrmineff=200000
c --cgreleff=1
c --cgrexteq=1
c --cgrextand=1
c --cgrextunits=1
c --cgrextite=1
c --cgrextxor=1
c --cliff=1
c --cliffreleff=8
c --cliffmineff=10000000
c --cliffmaxeff=100000000
c --compact=0
c --decompose=1
c --defragint=10000000
c --defragfree=50
c --elim=1
c --elmrtc=0
c --elmblk=1
c --elmclslim=1000
c --elmocclim=1000
c --elmaxeff=100000000
c --elmineff=5000000
c --elmreleff=10
c --sleeponabort=0
c --exitonabort=0
c --flipping=1
c --flipint=2
c --flipdur=50
c --fliptop=1
c --force=0
c --gauss=1
c --gaussextrall=1
c --gaussmaxor=20
c --gaussexptrn=1
c --gaussmaxeff=50000000
c --gaussmineff=2000000
c --gaussreleff=2
c --gluescale=2
c --gluekeep=0
c --inprocessing=1
c --cintinc=10000
c --irrlim=20
c --lift=1
c --lftmaxeff=20000000
c --lftmineff=500000
c --lftreleff=6
c --lhbr=1
c --lkhd=1
c --clim=-1
c --mocint=1000
c --move=2
c --log=-1
c --otfs=1
c --phase=0
c --phaseneginit=0
c --plain=0
c --probe=1
c --prbasicmaxeff=100000000
c --prbasicmineff=1000000
c --prbasicreleff=10
c --prbasic=1
c --prbasicroundlim=9
c --queuemergelim=10000
c --queuefactor=833
c --queueinc=20
c --rmincpen=4
c --seed=0
c --smallirr=90
c --smallve=1
c --smallvevars=12
c --randec=1
c --randecint=1000
c --redfixed=0
c --redlbound=0
c --redlexpfac=10
c --redldoutfac=0
c --redloutinc=10000
c --redlinit=1000
c --redlinc=1000
c --redinoutinc=100
c --redlmininc=10
c --redlmaxinc=200
c --redlminrel=10
c --redlmaxrel=300
c --redlminabs=500
c --redlmaxabs=1000000
c --reduce=1
c --restart=2
c --restartint=5
c --rstinoutinc=110
c --simplify=1
c --simpdelay=100
c --simpen=4
c --sizepen=1000000
c --sizemaxpen=3
c --sortlits=0
c --syncint=111111
c --termint=122222
c --ternres=1
c --ternresrtc=0
c --trnrmineff=4000000
c --trnrmaxeff=40000000
c --trnreleff=10
c --transred=1
c --trdmineff=100000
c --trdmaxeff=2000000
c --trdreleff=10
c --unhide=1
c --unhdextstamp=1
c --unhdhbr=0
c --unhdmaxeff=20000000
c --unhdmineff=1000000
c --unhdreleff=4
c --unhdlnpr=3
c --unhdroundlim=5
c --verbose=1
c --witness=1
c [limits] no conflict limit
c [limits] simplification delayed by 100 to 100 conflicts
c 
c  seconds         irredundant          redundant clauses agility   height
c          variables clauses conflicts large binary ternary    glue         MB
c 
c *    0.0  119008   495601         0       0      0     0  63  0.0   0.0   41
c [cut-width] 164968, max 260195, min4 103232 at 75%, min10 35345 at 88%
c [decision-order] bias 1, old 1
c [queue-schedule-all-variables]
c s    0.0  119008   495601         0       0      0     0  63  0.0   0.0   41
c [simplification-1] limit hit at 100 conflicts
c [simplification-1] simplification penalty of 4
c [ternres-1] limit 4000000 with penalty 0 = 0 + 0
c [ternres-1] all 119008 free variables schedulable
c [ternres-1] 0 ternary resolvents (0 bin, 0 trn)
c [ternres-1] 2666 variables remain 2% (116342 retained)
c [gauss-1] limit 2000000 penalty 0 = 0 + 0
c [gauss-1] extracted 169750 xors of average arity 2.0
c [gauss-1] connected 339503 occurrences of 100439 variables (average 3.4)
c [gauss-1] limit 2000000 penalty 0 = 0 + 0
c d    0.8   54342   244089       100     100      0     0  69  4.3 154.6   20
c [gauss-1] exported 0 unary, 4 binary and 0 ternary equations
c G    0.8   54342   244089       100     100      0     0  69  4.3 154.6   20
c [basicprobe-1] limit 1000000 penalty 0 = 0 + 0
c [basicprobe-1-0] 4411 probes remain 8% after last round
c [basicprobe-1-0] 1 units = 1 failed (100%) + 0 lifted (0%)
c [basicprobe-1-0] removed 1 variables, found 4997 hbrs
c p    1.0   54341   244089       100     100   4995     0  69  4.3 154.6   24
c [cgrclsr-1] limit 200000 penalty 0 = 0 + 0
c [cgrclsr-1] all 54341 free variables schedulable
c [cgrclsr-1] fully completed congruence closure
c [lift-1] limit 500000 with penalty 0 = 0 + 0
c [lift-1] using 54341 probes 100%
c [lift-1] 54296 variables remain 100% (45 retained)
c [cliff-1] limit of 10000000 steps penalty 0 = 0 + 0
c [cliff-1] failed 1, lifted 8
c K    1.5   54332   244084       100     100  13418     0  69  4.3 154.6   25
c [unhide-1] limit 1000000 with penalty 0 = 0 + 0
c [unhide-1-1] 0 units, 6 failed, 19756 tauts, 0 hbrs, 106 literals
c u    1.7   54325   224284       100      99  13418     1  69  4.3 154.6   25
c [transred-1] limit 100000 with penalty 0 = 0 + 0
c t    1.7   54325   224282       100      99  13416     1  69  4.3 154.6   25
c [block-1] scheduling all variables this time
c [block-1] scheduled 54325 variables 100%
c [block-1] limit of 10000000 steps penalty 0 = 0 + 0
c [block-1] fully completed blocked clause elimination
c [block-1] transition to [ all 0 rem 0 ] state
c [block-1] eliminated 4800 blocked clauses
c k    1.8   54325   219448       100      99  13416  4801  69  4.3 154.6   21
c [cce-1] scheduling all variables this time
c [cce-1] limit of 10000000 steps penalty 0 = 0 + 0
c [cce-1] incomplete covered clause elimination 48717 not tried 90%
c [cce-1] transition to [ all 1 rem 1 ] state
c [cce-1] eliminated 188 covered clauses
c E    2.3   54321   219260       100      99  20558  4801  69  4.3 154.6   21
c [elim-1] scheduling all variables this time
c [elim-1] scheduled 54321 variables 100%
c [elim-1] limit of 5000000 steps penalty 0 = 0 + 0
c [elim-1] incomplete variable elimination 39240 not tried 72%
c [elim-1] transition to [ all 1 rem 1 ] state
c [elim-1] eliminated 6871 = 13% variables out of 54321
c e    3.2   47450   215003       100      65   5172   614  69  4.3 154.6   20
c [phase-1] phase bias: 1475 positive 15%, 8460 negative 85%
c [simplification-1] removed 71558 variables 60%
c [simplification-1] limit increments divided by 31
c [simplification-1] arithmetic increase of conflict limit interval by 322
c [simplification-1] new irredundant limit 2182046
c [simplification-1] new conflict limit 422
c [simplification-1] simplification penalty reduced to 3
c R    3.4   47450   215003       413     347   5178   639  11  7.4 294.4   24
c [simplification-2] limit hit at 424 conflicts
c [simplification-2] simplification penalty of 3
c [ternres-2] limit 2000000 with penalty 1 = 1 + 0
c [ternres-2] 1055 schedulable variables 2%
c [ternres-2] 0 ternary resolvents (0 bin, 0 trn)
c [ternres-2] fully completed ternary resolution
c [gauss-2] limit 2000000 penalty 0 = 0 + 0
c [gauss-2] extracted 1077 xors of average arity 3.0
c [gauss-2] connected 3231 occurrences of 1659 variables (average 1.9)
c [gauss-2] limit 2000000 penalty 0 = 0 + 0
c [gauss-2] fully completed
c [gauss-2] exported 0 unary, 0 binary and 0 ternary equations
c G    3.6   47450   215003       424     356   5178   641  11  7.4 285.5   20
c [basicprobe-2] limit 1000000 penalty 0 = 0 + 0
c [basicprobe-2-0] 4270 probes remain 9% after last round
c [basicprobe-2-0] removed 0 variables, found 1413 hbrs
c p    3.7   47450   215003       424     356   6591   640  11  7.4 285.5   24
c [cgrclsr-2] limit 100000 penalty 1 = 1 + 0
c [cgrclsr-2] all 47450 free variables schedulable
c [cgrclsr-2] fully completed congruence closure
c [lift-2] limit 250000 with penalty 1 = 1 + 0
c [lift-2] using 47413 probes 100%
c [lift-2] 47384 variables remain 100% (66 retained)
c [cliff-2] limit of 10000000 steps penalty 0 = 0 + 0
c [cliff-2] failed 0, lifted 0
c [unhide-2] limit 1000000 with penalty 0 = 0 + 0
c [unhide-2-2] 0 units, 0 failed, 1855 tauts, 0 hbrs, 175 literals
c u    4.3   47450   214999       424     354   6105   642  11  7.4 285.5   24
c [transred-3] limit 100000 with penalty 0 = 0 + 0
c t    4.3   47450   214996       424     354   6105   642  11  7.4 285.5   24
c [block-2] scheduling all variables this time
c [block-2] scheduled 47450 variables 100%
c [block-2] limit of 10000000 steps penalty 0 = 0 + 0
c [block-2] fully completed blocked clause elimination
c [block-2] transition to [ all 0 rem 0 ] state
c [block-2] eliminated 0 blocked clauses
c [cce-2] 44601 variables 94% will be scheduled this time
c [cce-2] limit of 10000000 steps penalty 0 = 0 + 0
c [cce-2] 43839 variables 92% remain to be tried next time
c [cce-2] transition to [ all 0 rem 1 ] state
c [cce-2] eliminated 497 covered clauses
c E    4.8   47450   214499       424     354   6667   642  11  7.4 285.5   20
c [elim-2] 39165 variables 83% will be scheduled this time
c [elim-2] scheduled 39165 variables 83%
c [elim-2] limit of 5000000 steps penalty 0 = 0 + 0
c [elim-2] 29275 variables 62% remain to be tried next time
c [elim-2] transition to [ all 0 rem 1 ] state
c [elim-2] eliminated 1383 = 3% variables out of 47450
c e    5.8   46067   213969       424     345   4602   642  11  7.4 285.5   20
c [phase-2] phase bias: 0 positive 0%, 0 negative 0%
c [simplification-2] removed 1383 variables 2%
c [simplification-2] limit increments divided by 2
c [simplification-2] arithmetic increase of conflict limit interval by 5000
c [simplification-2] new irredundant limit 2182046
c [simplification-2] new conflict limit 5746
c [simplification-2] simplification penalty reduced to 2
c R    6.1   46067   213969       982     811   4622   707   3  6.2 226.5   25
c -    6.3   46067   213969      1234     501   4637   750   2  5.7 210.6   25
c R    6.6   46067   213969      2273    1397   4681   845   6  7.0 206.5   25
c -    7.6   46067   213969      4207    1503   4776  1060   7  6.3 200.7   25
c R    8.0   46067   213969      5167    2422   4779  1095   5  7.0 223.3   25
c [simplification-3] limit hit at 5746 conflicts
c [simplification-3] simplification penalty of 2
c [ternres-3] limit 1000000 with penalty 2 = 2 + 0
c [ternres-3] all 46067 free variables schedulable
c [ternres-3] 61 ternary resolvents (0 bin, 61 trn)
c [ternres-3] 32049 variables remain 70% (14018 retained)
c 
c  seconds         irredundant          redundant clauses agility   height
c          variables clauses conflicts large binary ternary    glue         MB
c 
c T    8.3   46067   213969      5746    2879   4816  1233   5  6.8 214.4   25
c [gauss-3] limit 1000000 penalty 1 = 1 + 0
c [gauss-3] extracted 547 xors of average arity 3.0
c [gauss-3] connected 1641 occurrences of 993 variables (average 1.7)
c [gauss-3] limit 1000000 penalty 1 = 1 + 0
c [gauss-3] fully completed
c [gauss-3] exported 0 unary, 0 binary and 0 ternary equations
c G    8.4   46067   213969      5746    2879   4816  1233   5  6.8 214.4   21
c [basicprobe-3] limit 500000 penalty 1 = 1 + 0
c [basicprobe-3-0] 3835 probes remain 8% after last round
c [basicprobe-3-0] removed 0 variables, found 394 hbrs
c p    8.5   46067   213969      5746    2879   5210  1216   5  6.8 214.4   25
c [cgrclsr-3] limit 67443 based on 539549 irredundant literals
c [cgrclsr-3] all 46067 free variables schedulable
c [cgrclsr-3] fully completed congruence closure
c [lift-3] limit 125000 with penalty 2 = 2 + 0
c [lift-3] using 46002 probes 100%
c [lift-3] 45990 variables remain 100% (77 retained)
c [cliff-3] limit of 5000000 steps penalty 1 = 1 + 0
c [cliff-3] failed 0, lifted 0
c [unhide-3] limit 1000000 with penalty 0 = 0 + 0
c [unhide-3-3] 0 units, 0 failed, 1524 tauts, 0 hbrs, 1640 literals
c u    9.0   46067   212453      5746    2862   5535  1210   5  6.8 214.4   25
c [transred-5] limit 677831 with penalty 0 = 0 + 0
c t    9.1   46067   212442      5746    2862   5525  1210   5  6.8 214.4   25
c [block-3] scheduling all variables this time
c [block-3] scheduled 46067 variables 100%
c [block-3] limit of 5000000 steps penalty 1 = 1 + 0
c [block-3] fully completed blocked clause elimination
c [block-3] transition to [ all 0 rem 0 ] state
c [block-3] eliminated 0 blocked clauses
c [cce-3] scheduling all variables this time
c [cce-3] limit of 10000000 steps penalty 0 = 0 + 0
c [cce-3] 42168 variables 92% remain to be tried next time
c [cce-3] transition to [ all 1 rem 1 ] state
c [cce-3] eliminated 321 covered clauses
c E    9.6   46067   212121      5746    2862   5974  1208   5  6.8 214.4   21
c [elim-3] scheduling all variables this time
c [elim-3] scheduled 46067 variables 100%
c [elim-3] limit of 5000000 steps penalty 0 = 0 + 0
c [elim-3] 28963 variables 63% remain to be tried next time
c [elim-3] transition to [ all 1 rem 1 ] state
c [elim-3] eliminated 463 = 1% variables out of 46067
c e   10.6   45604   211683      5746    2838   5236  1201   5  6.8 214.4   21
c [simplification-3] removed 463 variables 1%
c [simplification-3] no reduction of limit increments
c [simplification-3] arithmetic increase of conflict limit interval by 10000
c [simplification-3] new irredundant limit 2182046
c [simplification-3] new conflict limit 21068
c [simplification-3] simplification penalty reduced to 1
c -   11.8   45604   211683      8402    2561   5335  1448   4  6.6 213.3   25
c 1   12.6   45604   211683     10070    4038   5390  1568   3  6.8 217.5   25
c 
c  seconds         irredundant          redundant clauses agility   height
c          variables clauses conflicts large binary ternary    glue         MB
c 
c blkd: 3 bces, 4800 removed, 1939832 resolutions, 5328780 steps
c blkd: 4800 blocking literals 1%, 0 pure
c cces: 3 cces, 988 eliminated, 988 ate 100%, 0 abce 0%
c cces: 19522 probed, 4 lifted, 4 failed
c clff: 3 cliffs, 8 lifted, 1 failed
c clff: 14430 decisions, 25009782 steps
c clls: 1 sat, 0 simp, 0 freeze, 0 melt
c clls: 2081433 add, 0 assume,, 0 deref, 0 failed
c clls: 0 cassume, 0 mosat
c coll: 19 gcs, 0 rescored clauses
c cgrs: 3 count, 367496 esteps, 91375 csteps
c cgrs: 0 eqs, 0 units
c cgrs: 0 matched (0 ands 0%, 0 xors 0%, 0 ites 0%)
c cgrs: 0 simplified (0 ands 0%, 0 xors 0%, 0 ites 0%)
c cgrs: 2370 extracted (2042 ands 86%, 328 xors 14%, 0 ites 0%)
c dcps: 4 decompositions, 64666 equivalent 29%
c decs: 206472 decision, 207 random 0.100%
c decs: 48515 flipped 23.497% (in 67 phases)
c elms: 3 elims, 8717 eliminated 4%
c elms: 8717 small 100%, 0 large 0%
c elms: 36777 tried small, 8717 succeeded 24%, 28060 failed 76%
c elms: 0 subsumed, 0 strengthened, 0 blocked
c elms: 481710 copies, 330281 resolutions, 975663 ipos
c elms: 2 subchks, 0 strchks
c frcs: 0 computed, 23.7 - 76.3 average min-cut range
c gaus: 3 extractions, 171374 extracted, 2.0 size, 3 max
c gaus: exported 0 units, 4 binary and 0 ternary equations
c gaus: 0 gc, 10000116 steps, 5000058 extr 50%, 2536502 elim 25%
c glue: 6.8 avg, 2.6 scaled avg
c glue: 0 maxredglue=15 (0%)
c lift: 3 phases, 516 probed (172 level1 33%, 344 level2 67%)
c lift: 0 units, 0 equivalences, 0 implications
c hbrs: 24081 hbrs = 24081 trn 100% + 0 lrg 0%, 27 sub 0%
c lrnd: 9986 clauses, 6089 uips 61%, 23.4 length, 6.8 glue
c ints: 510 luby (67094 steps), 0 inout (0 steps)
c mins: 233822 learned lits, 5% minimized
c move: moved 5788, 988 binary 17%, 4800 ternary 83%
c otfs: str 347 dyn (300 red, 47 irr) 84 drv 24%, 263 rst 76%
c otfs: sub 1 dyn (1 red, 0 irr)
c phas: 2 computed, 10050 set, 1475 pos (15%), 8575 neg (85%)
c prbs: 3 basic, 3401 probed, 1 failed, 0 lifted
c prps: 32621518 props, 113 props/dec
c prps: 72% srch, 28% simp, 0% lkhd
c psns: 952200 searches, 131311 hits, 14% hit rate
c queu: 30032 new, 9309 del, 119 maximum priority
c queu: 20704 merged, 12266 collected, 4 gcs
c queu: 10333 deprioritized, 21.1 lines on average
c reds: 3 count, 0 reset, 3 acts 100%, 0 exp 0%
c reds: 3 arithmetic 100%, 3 double 100%
c rmbd: 9 removed, 0 red 0%
c rsts: 455 restarts 89%, 54 skipped 11%
c rsts: 60 kept 13.2% average 47.4%
c simp: 3 count (0 ilim 0%, 0 plim 0%, 3 clim 100%)
c trnr: 3 count, 0 bin, 61 trn, 5061999 steps
c tops: 100301 fixed 46%, 0 iterations
c trds: 6 transitive reductions, 28 removed, 0 failed
c trds: 1373 nodes, 1892 edges, 880655 steps
c unhd: 3 count, 3 rounds, 3355951 steps
c unhd: 0 non-trivial sccs of average size 0.0
c unhd: 0 units, 0 bin, 0 trn, 0 lrg
c unhd: 6 failed, 6 stamp, 0 lits, 0 bin, 0 trn, 0 lrg
c unhd: 23135 tauts, 1 bin 0%, 694 trn 3%, 14 lrg 0%
c unhd: 23135 tauts, 22426 stamp 97%, 1868 red 8%
c unhd: 0 hbrs, 0 trn 0%, 0 lrg 0%, 0 red 0%
c unhd: 1921 strd, 0 bin 0%, 5 trn 0%, 1916 lrg 100%, 1920 red 100%
c vars: 45604 remaining 21% and 173684 removed 79% out of 219288
c vars: 100301 fixed 46%, 8717 eliminated 4%, 64666 equivalent 29%
c vsts: 161403570 visits, 74% srch, 26% simp, 0% lkhd
c vsts: 5.1 search visits per propagation 11869.5 per conflict
c wchs: 13442302 pushed, 5193509 enlarged, 32 defrags
c 
c scaledglue  added       reduced       forcing      resolved     conflicts
c 
c all      8708 100      4562 100    105137 100     17938 100      1553 100
c 
c  0          0   0         0   0         0   0         0   0         0   0 
c  1         54   1        28   1      4371   4        94   1         7   0 
c  2       3341  38      1868  41     55151  52<     6237  35       468  30 
c  3       3423  39<     1449  32<    40558  39      8154  45<      846  54<
c  4       1259  14       808  18      4032   4      2362  13       182  12 
c  5        376   4       240   5       669   1       684   4        40   3 
c  6        163   2       112   2       235   0       272   2         8   1 
c  7         64   1        41   1        88   0       103   1         2   0 
c  8         15   0         7   0        19   0        15   0         0   0 
c  9         10   0         8   0        11   0        14   0         0   0 
c 10          3   0         1   0         3   0         3   0         0   0 
c 11          0   0         0   0         0   0         0   0         0   0 
c 12          0   0         0   0         0   0         0   0         0   0 
c 13          0   0         0   0         0   0         0   0         0   0 
c 14          0   0         0   0         0   0         0   0         0   0 
c 15          0   0         0   0         0   0         0   0         0   0 
c 
c avg             2.9           3.0           2.5           2.9           2.9
c std             1.1           1.1           0.7           1.0           0.8
c 
c 206472 decisions, 10070 conflicts, 798.6 conflicts/sec
c 32621518 propagations, 2.6 megaprops/sec
c 12.6 seconds, 47.2 MB
c 
c    0.652   5% analysis
c    0.444   4% block
c    0.040   0% bump
c    0.000   0% card
c    1.184   9% cce
c    0.868   7% cliff
c    0.012   0% cutwidth
c    0.180   1% decide
c    0.000   0% force
c    0.820   7% gc
c    0.328   3% cgrclsr
c    0.396   3% decomp
c    0.224   2% defrag
c    2.912  23% elim
c    0.968   8% gauss
c    0.268   2% lift
c    0.092   1% mincls
c    0.048   0% phase
c    0.152   1% probe
c    0.012   0% reduce
c    0.164   1% restart
c    0.100   1% ternres
c    0.052   0% transred
c    0.320   3% unhide
c ==================================
c    0.020   0% preprocessing     0%
c    8.041  64% inprocessing    100%
c ==================================
c    8.061  64% simplifying
c    0.000   0% lookahead
c    4.540  36% search
c ==================================
c   12.609 100% all
c
s SATISFIABLE
